NAME: ClusterId_259 
COMMENT : (Gillet and Johnson) 
TYPE : CVRP 
DIMENSION: 2 
EDGE_WEIGHT_TYPE: EUC_2D 
CAPACITY: 500 
NODE_COORD_SECTION 
260 40 -80 
36 37 -90 
240 44 -84 
DEMAND_SECTION 
260 200
36 -90
240 -84
DEPOT_SECTION 
260
 -1
EOF